50	
21690	
25084	
1520	1360
950	850
432	372
432	372
1296	1116
1520	1360
432	372
576	496
1140	1020
380	340
760	680
950	850
1008	868
1008	868
380	340
1440	1240
380	340
1296	1116
576	496
432	372
576	496
1296	1116
720	620
576	496
570	510
1152	992
864	744
576	496
1296	1116
1152	992
1440	1240
1330	1190
1710	1530
380	340
1330	1190
380	340
576	496
760	680
1520	1360
760	680
288	248
864	744
1140	1020
576	496
1710	1530
432	372
720	620
576	496
1296	1116
380	340